p cnf 
c barcenas past
1 2 3 4 5 6 7 8 9 10 11 12 13 14 15 16 0
c barcenas future
17 18 19 20 21 22 23 24 25 26 27 28 29 30 31 32 0
c monotone barcenas t-1 -> t+1
1 -17 0
2 -18 0
3 -19 0
4 -20 0
5 -21 0
6 -22 0
7 -23 0
8 -24 0
9 -25 0
10 -26 0
11 -27 0
12 -28 0
13 -29 0
14 -30 0
15 -31 0
16 -32 0
c scope implications
-33 -17 0
-33 -18 0
33 -19 0
33 -20 0
-33 -21 0
33 -22 0
33 -23 0
33 -24 0
33 -25 0
33 -26 0
33 -27 0
33 -28 0
33 -29 0
33 -30 0
33 -31 0
33 -32 0
-34 -17 0
-34 -18 0
-34 -19 0
34 -20 0
34 -21 0
-34 -22 0
34 -23 0
34 -24 0
34 -25 0
34 -26 0
34 -27 0
34 -28 0
34 -29 0
34 -30 0
34 -31 0
34 -32 0
35 -17 0
-35 -18 0
-35 -19 0
-35 -20 0
35 -21 0
35 -22 0
-35 -23 0
35 -24 0
35 -25 0
35 -26 0
35 -27 0
35 -28 0
35 -29 0
35 -30 0
35 -31 0
35 -32 0
-36 -17 0
36 -18 0
36 -19 0
36 -20 0
36 -21 0
36 -22 0
36 -23 0
36 -24 0
36 -25 0
36 -26 0
36 -27 0
36 -28 0
36 -29 0
36 -30 0
36 -31 0
36 -32 0
-37 -17 0
37 -18 0
37 -19 0
37 -20 0
-37 -21 0
-37 -22 0
37 -23 0
37 -24 0
-37 -25 0
37 -26 0
37 -27 0
37 -28 0
37 -29 0
37 -30 0
37 -31 0
37 -32 0
38 -17 0
-38 -18 0
38 -19 0
38 -20 0
-38 -21 0
-38 -22 0
-38 -23 0
38 -24 0
38 -25 0
-38 -26 0
38 -27 0
38 -28 0
38 -29 0
38 -30 0
38 -31 0
38 -32 0
39 -17 0
39 -18 0
-39 -19 0
39 -20 0
39 -21 0
-39 -22 0
-39 -23 0
-39 -24 0
39 -25 0
39 -26 0
-39 -27 0
39 -28 0
39 -29 0
39 -30 0
39 -31 0
39 -32 0
40 -17 0
40 -18 0
40 -19 0
40 -20 0
-40 -21 0
40 -22 0
40 -23 0
40 -24 0
40 -25 0
40 -26 0
40 -27 0
40 -28 0
40 -29 0
40 -30 0
40 -31 0
40 -32 0
41 -17 0
41 -18 0
41 -19 0
41 -20 0
-41 -21 0
41 -22 0
41 -23 0
41 -24 0
-41 -25 0
-41 -26 0
41 -27 0
41 -28 0
-41 -29 0
41 -30 0
41 -31 0
41 -32 0
42 -17 0
42 -18 0
42 -19 0
42 -20 0
42 -21 0
-42 -22 0
42 -23 0
42 -24 0
-42 -25 0
-42 -26 0
-42 -27 0
42 -28 0
42 -29 0
-42 -30 0
42 -31 0
42 -32 0
43 -17 0
43 -18 0
43 -19 0
43 -20 0
43 -21 0
43 -22 0
-43 -23 0
43 -24 0
43 -25 0
-43 -26 0
-43 -27 0
-43 -28 0
43 -29 0
43 -30 0
-43 -31 0
43 -32 0
44 -17 0
44 -18 0
44 -19 0
44 -20 0
44 -21 0
44 -22 0
44 -23 0
44 -24 0
-44 -25 0
44 -26 0
44 -27 0
44 -28 0
44 -29 0
44 -30 0
44 -31 0
44 -32 0
45 -17 0
45 -18 0
45 -19 0
45 -20 0
45 -21 0
45 -22 0
45 -23 0
45 -24 0
-45 -25 0
45 -26 0
45 -27 0
45 -28 0
-45 -29 0
-45 -30 0
45 -31 0
45 -32 0
46 -17 0
46 -18 0
46 -19 0
46 -20 0
46 -21 0
46 -22 0
46 -23 0
46 -24 0
46 -25 0
-46 -26 0
46 -27 0
46 -28 0
-46 -29 0
-46 -30 0
-46 -31 0
46 -32 0
47 -17 0
47 -18 0
47 -19 0
47 -20 0
47 -21 0
47 -22 0
47 -23 0
47 -24 0
47 -25 0
47 -26 0
-47 -27 0
47 -28 0
47 -29 0
-47 -30 0
-47 -31 0
-47 -32 0
48 -17 0
48 -18 0
48 -19 0
48 -20 0
48 -21 0
48 -22 0
48 -23 0
48 -24 0
48 -25 0
48 -26 0
48 -27 0
48 -28 0
-48 -29 0
48 -30 0
48 -31 0
48 -32 0
-1 0
-17 0
